=1
=2
=0IBM ILOG CPLEX   42.1.0 cb854401 Feb 1, 2023           LEG x86 64bit/Linux    
=1
--- GAMS/Cplex licensed for continuous and discrete problems.
=2
=C
=1
=CReading parameter(s) from "/storage/home/ejm6426/scratch/scRBA/parameterization/kapp/datasets/Yu2021_chemoClimNH4_010_using_rtRBA_methods/min_flux_violation/cplex.opt"
=C>>  optcr = 1E-12
=C>>  optca = 1E-12
=C>>  eprhs = 1E-9
=C>> 
=CFinished reading from "/storage/home/ejm6426/scratch/scRBA/parameterization/kapp/datasets/Yu2021_chemoClimNH4_010_using_rtRBA_methods/min_flux_violation/cplex.opt"
=2
=C
=1
--- GMO setup time: 0.00s
=2
=1
--- Space for names approximately 0.48 Mb
=2
=1
--- Use option 'names no' to turn use of names off
=2
=1
--- GMO memory 5.78 Mb (peak 5.86 Mb)
=2
=1
--- Dictionary memory 0.00 Mb
=2
=1
--- Cplex 22.1.1.0 link memory 0.26 Mb (peak 1.91 Mb)
=2
=1
--- Starting Cplex
=2
=C
Version identifier: 22.1.1.0 | 2022-11-28 | 9160aff4d
CPXPARAM_Advance                                 0
CPXPARAM_Threads                                 1
CPXPARAM_MIP_Display                             4
CPXPARAM_MIP_Pool_Capacity                       0
CPXPARAM_Simplex_Limits_Iterations               1000000
CPXPARAM_Simplex_Tolerances_Feasibility          1.0000000000000001e-09
CPXPARAM_TimeLimit                               1000
CPXPARAM_MIP_Tolerances_AbsMIPGap                9.9999999999999998e-13
CPXPARAM_MIP_Tolerances_MIPGap                   9.9999999999999998e-13
Tried aggregator 1 time.
LP Presolve eliminated 2364 rows and 6011 columns.
Aggregator did 620 substitutions.
Reduced LP has 1646 rows, 4051 columns, and 41274 nonzeros.
Presolve time = 0.07 sec. (23.05 ticks)

Iteration log . . .
Iteration:     1   Dual objective     =             0.000000
Perturbation started.
Iteration:   101   Dual objective     =             0.000000
Iteration:   218   Dual objective     =             7.914182
Iteration:   310   Dual objective     =             9.133989
Iteration:   394   Dual objective     =             9.345285
Iteration:   497   Dual objective     =             9.345402
Iteration:   596   Dual objective     =             9.345599
Iteration:   708   Dual objective     =             9.345754
Iteration:   775   Dual objective     =             9.345938
Iteration:   844   Dual objective     =          5196.890313
Iteration:   908   Dual objective     =          7251.113812
Iteration:   990   Dual objective     =          7342.443598
Markowitz threshold set to 0.1
Iteration:   994   Dual objective     =          7350.573746
Iteration:  1073   Dual objective     =          7351.265610
Iteration:  1150   Dual objective     =          7351.696919
Iteration:  1239   Dual objective     =          7351.868346
Iteration:  1330   Dual objective     =          7351.970447
Iteration:  1427   Dual objective     =          7352.019705
Iteration:  1530   Dual objective     =          7352.050827
Iteration:  1637   Dual objective     =          7352.405909
Iteration:  1742   Dual objective     =          7353.382301
Removing perturbation.
Markowitz threshold set to 0.2
Iteration:  1832   Dual objective     =          7344.039788
=C
=1
--- LP status (1): optimal.
=2
=1
--- Cplex Time: 0.19sec (det. 113.60 ticks)

=2
=C
=COptimal solution found
=CObjective:         7344.039788
=C
